
******************************************************************************
This program contains Ipopt, a library for large-scale nonlinear optimization.
 Ipopt is released as open source code under the Eclipse Public License (EPL).
         For more information visit http://projects.coin-or.org/Ipopt
******************************************************************************

This is Ipopt version 3.12.6, running with linear solver ma57.

Number of nonzeros in equality constraint Jacobian...:        0
Number of nonzeros in inequality constraint Jacobian.:        0
Number of nonzeros in Lagrangian Hessian.............:     9997

Total number of variables............................:     5000
                     variables with only lower bounds:        0
                variables with lower and upper bounds:        0
                     variables with only upper bounds:        0
Total number of equality constraints.................:        0
Total number of inequality constraints...............:        0
        inequality constraints with only lower bounds:        0
   inequality constraints with lower and upper bounds:        0
        inequality constraints with only upper bounds:        0

iter    objective    inf_pr   inf_du lg(mu)  ||d||  lg(rg) alpha_du alpha_pr  ls
   0  1.9996040e+06 0.00e+00 1.00e+02  -1.0 0.00e+00    -  0.00e+00 0.00e+00   0
   1  7.9584490e+00 0.00e+00 1.99e-01  -1.0 1.99e+00  -4.0 1.00e+00 1.00e+00f  1
   2  1.3776814e-03 0.00e+00 4.78e-07  -2.5 4.25e-03  -4.5 1.00e+00 1.00e+00f  1
   3  4.6560668e-04 0.00e+00 3.03e-05  -8.6 1.55e-03  -5.0 1.00e+00 1.00e+00f  1
   4  4.5957205e-05 0.00e+00 2.72e-05  -8.6 1.48e-03  -5.4 1.00e+00 1.00e+00f  1
   5  8.0358171e-07 0.00e+00 4.27e-06  -8.6 5.85e-04  -5.9 1.00e+00 1.00e+00f  1
   6  1.8763844e-09 0.00e+00 8.95e-08  -8.6 8.48e-05  -6.4 1.00e+00 1.00e+00f  1
   7  5.2261353e-13 0.00e+00 2.24e-10  -8.6 4.24e-06  -6.9 1.00e+00 1.00e+00f  1
   8  1.6573190e-17 0.00e+00 6.24e-14  -9.3 7.15e-08  -7.3 1.00e+00 1.00e+00f  1

Number of Iterations....: 8

                                   (scaled)                 (unscaled)
Objective...............:   8.2849214874712576e-22    1.6573190083223453e-17
Dual infeasibility......:   6.2411810720814431e-14    1.2484883581316009e-09
Constraint violation....:   0.0000000000000000e+00    0.0000000000000000e+00
Complementarity.........:   0.0000000000000000e+00    0.0000000000000000e+00
Overall NLP error.......:   6.2411810720814431e-14    1.2484883581316009e-09


Number of objective function evaluations             = 9
Number of objective gradient evaluations             = 9
Number of equality constraint evaluations            = 0
Number of inequality constraint evaluations          = 0
Number of equality constraint Jacobian evaluations   = 0
Number of inequality constraint Jacobian evaluations = 0
Number of Lagrangian Hessian evaluations             = 8
Total CPU secs in IPOPT (w/o function evaluations)   =      0.070
Total CPU secs in NLP function evaluations           =      0.017

EXIT: Optimal Solution Found.

 ** SUBROUTINE CUTEST_csetup: Warning. The problem has no general constraints. 
 ** Other tools may be preferable ** 

************************ CUTEst statistics ************************


 Package used            :  IPOPT
 Problem                 :  NONDIA    
 # variables             =            5000
 # constraints           =               0
 # objective functions   =        0.1900000E+02
 # objective gradients   =        0.1000000E+02
 # objective Hessians    =        0.9000000E+01
 # Hessian-vector prdct  =        0.0000000E+00
 # constraints functions =        0.0000000E+00
 # constraints gradients =        0.0000000E+00
 # constraints Hessians  =        0.0000000E+00
 Exit code               =               0
 Final f                 =   0.1657319E-16
 Set up time             =            0.09 seconds
 Solve time              =            0.21 seconds


******************************************************************

System Time =       0.0529999994 s.
